unsat
(define-fun SC ((s (_ BitVec 4)) (t (_ BitVec 4))) Bool (or (bvslt s #b0000) (bvuge s t)))
3.26user 0.02system 0:03.29elapsed 99%CPU (0avgtext+0avgdata 65896maxresident)k
0inputs+8outputs (0major+13191minor)pagefaults 0swaps
